outputs/case_120.model.txt
capital_adequacy_ratio = 45
net_worth_ratio_prev = 3/2
net_worth_ratio = 3/2
responsible_person_removed = True
net_worth = 0
improvement_plan_submitted = True
supervisory_measures_taken = True
special_asset_disposal_approved = True
improvement_plan_executed = True
responsible_person_duty_suspended = True
report_content_truthful = True
internal_handling_established = True
explanation_document_provided = True
violate_148_3_2 = False
capital_severely_insufficient_measures_executed = True
explanation_document_compliant = True
public_explanation_made = True
violate_148_1_2_flag = False
capital_level = 4
capital_insufficient_measures_executed = True
internal_control_executed = True
internal_handling_executed = True
violate_148_1_2 = False
penalty = False
capital_significantly_insufficient_measures_executed = True
violate_148_2_2 = False
violate_148_2_1 = False
internal_control_established = True
violate_148_3_1 = False
explanation_document_truthful = True
report_to_authority_on_time = True